
  17    4
  10   10   10   10

   0   0   0   0   0   5 2 4 7 10 11 
   3  10  10  10  10   3 8 6 3 
   3  10  10  10  10   2 13 5 
   3  10  10  10  10   2 9 6 
   4  10  10  10  10   2 12 9 
  10  10  10  10  10   2 16 12 
   2  10  10  10  10   2 16 12 
   7  10  10  10  10   1 9 
   9  10  10  10  10   3 16 15 14 
   9  10  10  10  10   1 12 
   5  10  10  10  10   1 12 
   3  10  10  10  10   2 15 14 
   1  10  10  10  10   1 16 
   7  10  10  10  10   1 17
  10  10  10  10  10   1 17
   5  10  10  10  10   1 17
   0   0   0   0   0   0 
